letting n =  10
letting blocks =  [[1, 4], [3, 1], [3, 2], [3, 5], [3, 8], [3, 10], [4, 4], [4, 7], [5, 5], [5, 7], [5, 9], [6, 5], [8, 10], [9, 1], [9, 3], [10, 1], [10, 2], [10, 3], [10, 4], [10, 9]]
